p tdp 44 84
3 11
10 26
5 34
6 41
13 22
38 42
32 33
12 24
38 39
12 14
6 23
15 27
19 44
28 35
3 30
23 43
7 18
2 30
11 25
9 16
1 6
16 31
4 17
22 37
10 32
9 14
17 28
3 5
7 13
8 26
20 29
5 44
19 39
12 20
6 26
8 14
27 40
21 25
18 27
17 29
36 44
13 14
3 28
24 41
17 26
9 42
17 33
14 27
15 38
8 11
2 26
12 16
19 22
4 26
36 41
8 36
25 44
23 27
26 36
1 10
11 38
16 36
21 34
26 27
5 40
30 40
5 37
4 41
15 42
2 25
8 29
9 24
5 10
15 39
31 33
2 15
22 24
2 43
13 38
15 29
3 13
12 40
9 13
22 33
